p hs 32 31
13 23 28
6 15 16 31
7 8 10 17 27
12 14 18 29
11 13 23 28
6 15 16 20 21
15 20 21 22
14 18 19 29
4 5 8
6 16 30 31
7 14 18 22 26 29 32
3 11 23 24 25
2 7 17 29 32
13 23 24 28
12 22 26 29
8 9 10
4 5 19
1 2 27
2 30 31 32
21 22 26 29
9 10 17
6 15 16 31 32
1 2 7 30
1 17 27
4 8 18 19
7 16 29 30 32
3 24 25
15 20 21
5 8 9 17 19
11 12 13 24
11 12 14 26
